0 0 1 0 1 1 1 0 
0 27 25 21 27 10 30 26 
27 0 4 6 16 18 12 17 
25 4 0 3 29 13 19 35 
21 6 3 0 15 8 32 19 
27 16 29 15 0 5 14 24 
10 18 13 8 5 0 39 20 
30 12 19 32 14 39 0 33 
26 17 35 19 24 20 33 0 
2 5
1B 6P 5P 7P 2B 3P 4B 8B = 93